\ Model CCA
\ LP format - for model browsing. Use MPS format to capture full model detail.
Maximize
 [ 1.2156137999999998e+06 w1[0] * w2[0] + 26526.65743000001 w1[0] * w2[1]
   + 87509.4 w1[0] * w2[2] + 17683.456 w1[0] * w2[3]
   + 276950.2833333334 w1[0] * w2[4] + 150510.6 w1[0] * w2[5]
   + 79875.8 w1[1] * w2[0] + 1682.502282 w1[1] * w2[1]
   + 5609.8168 w1[1] * w2[2] + 1085.6186 w1[1] * w2[3]
   + 17470.3165 w1[1] * w2[4] + 9332.94 w1[1] * w2[5]
   + 40995.77999999999 w1[2] * w2[0] + 864.1895592 w1[2] * w2[1]
   + 2817.2574 w1[2] * w2[2] + 603.346 w1[2] * w2[3]
   + 9105.266 w1[2] * w2[4] + 4997.88 w1[2] * w2[5]
   + 407371.6 w1[3] * w2[0] + 8095.707495999999 w1[3] * w2[1]
   + 26823.672 w1[3] * w2[2] + 5347.798 w1[3] * w2[3]
   + 84827.28999999999 w1[3] * w2[4] + 45809.4 w1[3] * w2[5]
   + 13232.422 w1[4] * w2[0] + 278.86494594 w1[4] * w2[1]
   + 920.02328 w1[4] * w2[2] + 193.56224 w1[4] * w2[3]
   + 2880.0475 w1[4] * w2[4] + 1560.838 w1[4] * w2[5]
   + 3.093318e+06 w1[5] * w2[0] + 50601.45074 w1[5] * w2[1]
   + 168461.83 w1[5] * w2[2] + 33705.63 w1[5] * w2[3]
   + 526681.2666666667 w1[5] * w2[4] + 284762 w1[5] * w2[5] ] / 2 
Subject To
 R0: z1[0] + z1[1] + z1[2] + z1[3] + z1[4] + z1[5] <= 3
 R1: z2[0] + z2[1] + z2[2] + z2[3] + z2[4] + z2[5] <= 3
 R2: w1[0] - 1000 z1[0] <= 0
 R3: w1[1] - 1000 z1[1] <= 0
 R4: w1[2] - 1000 z1[2] <= 0
 R5: w1[3] - 1000 z1[3] <= 0
 R6: w1[4] - 1000 z1[4] <= 0
 R7: w1[5] - 1000 z1[5] <= 0
 R8: w1[0] + 1000 z1[0] >= 0
 R9: w1[1] + 1000 z1[1] >= 0
 R10: w1[2] + 1000 z1[2] >= 0
 R11: w1[3] + 1000 z1[3] >= 0
 R12: w1[4] + 1000 z1[4] >= 0
 R13: w1[5] + 1000 z1[5] >= 0
 R14: w2[0] - 1000 z2[0] <= 0
 R15: w2[1] - 1000 z2[1] <= 0
 R16: w2[2] - 1000 z2[2] <= 0
 R17: w2[3] - 1000 z2[3] <= 0
 R18: w2[4] - 1000 z2[4] <= 0
 R19: w2[5] - 1000 z2[5] <= 0
 R20: w2[0] + 1000 z2[0] >= 0
 R21: w2[1] + 1000 z2[1] >= 0
 R22: w2[2] + 1000 z2[2] >= 0
 R23: w2[3] + 1000 z2[3] >= 0
 R24: w2[4] + 1000 z2[4] >= 0
 R25: w2[5] + 1000 z2[5] >= 0
 qc0: [ 115521.17 w1[0] ^2 + 13788.093 w1[0] * w1[1]
   + 7937.744000000002 w1[0] * w1[2] + 68448.45999999999 w1[0] * w1[3]
   + 2351.6934 w1[0] * w1[4] + 413419.5999999999 w1[0] * w1[5]
   + 496.7082750000002 w1[1] ^2 + 395.8065999999999 w1[1] * w1[2]
   + 4286.975 w1[1] * w1[3] + 149.29191 w1[1] * w1[4]
   + 26733.515 w1[1] * w1[5] + 178.0511 w1[2] ^2 + 2326.11 w1[2] * w1[3]
   + 81.7692 w1[2] * w1[4] + 13359.78 w1[2] * w1[5] + 13483.0675 w1[3] ^2
   + 721.9433999999999 w1[3] * w1[4] + 137706.6 w1[3] * w1[5]
   + 15.77278099999999 w1[4] ^2 + 4449.253000000001 w1[4] * w1[5]
   + 577814 w1[5] ^2 ] <= 1
 qc1: [ 5.1818495e+06 w2[0] ^2 + 148134.68494 w2[0] * w2[1]
   + 490965.3799999999 w2[0] * w2[2] + 98568.9 w2[0] * w2[3]
   + 1.5258560666666671e+06 w2[0] * w2[4] + 821820 w2[0] * w2[5]
   + 1588.618496093201 w2[1] ^2 + 10554.1725746 w2[1] * w2[2]
   + 2098.0643812 w2[1] * w2[3] + 33221.068579 w2[1] * w2[4]
   + 17964.51008 w2[1] * w2[5] + 17568.6781 w2[2] ^2
   + 6952.651399999999 w2[2] * w2[3] + 110476.4686666667 w2[2] * w2[4]
   + 59656.5 w2[2] * w2[5] + 738.5374000000002 w2[3] ^2
   + 21991.912 w2[3] * w2[4] + 11972.46 w2[3] * w2[5]
   + 175527.8491666667 w2[4] ^2 + 189173.5333333334 w2[4] * w2[5]
   + 51834 w2[5] ^2 ] <= 1
Bounds
Binaries
 z1[0] z1[1] z1[2] z1[3] z1[4] z1[5] z2[0] z2[1] z2[2] z2[3] z2[4] z2[5]
End
